# 基本設定
units           metal
atom_style      charge
boundary        p p p

variable scale equal 1.0

label loop

clear
units           metal
atom_style      charge
boundary        p p p

read_data       albite-data5

# Charges
set type 1 charge  0.6
set type 2 charge  1.8
set type 3 charge  2.4
set type 4 charge -1.2

# SHIKポテンシャル
pair_style shik/wolf 8.0 10.0
pair_coeff 1 1  1476.9   3.4075   0.0     16800.0   0.2 0.2
pair_coeff 1 2  1.0     0.1       0.0     1.0       0.0 0.0
pair_coeff 1 3  495653  5.4151    0.0     16800.0   0.2 0.2
pair_coeff 1 4  1127566 6.8986    40.562  16800.0   0.2 0.2
pair_coeff 2 2  1799.1  3.6778    100.0   16800.0   0.2 0.2
pair_coeff 2 3  1.0     0.1       0.0     1.0       0.0 0.0
pair_coeff 2 4  21740   5.3054    65.815  16800.0   0.2 0.2
pair_coeff 3 3  2798.0  4.4073    0.0     3423204.0 0.2 0.2
pair_coeff 3 4  23108   5.0979    139.70  66.0      0.2 0.2
pair_coeff 4 4  1120.5  2.8927    26.132  16800.0   0.2 0.2

# 体積圧縮
variable a equal ${scale}
change_box all x scale ${a} y scale ${a} z scale ${a} remap

# ネイバー設定
neighbor 2.0 bin
neigh_modify delay 10 every 1 check yes

# エネルギー最小化（0K）
minimize 1.0e-6 1.0e-6 10000 10000

# 圧力・密度の記録
variable mypress equal press
variable mydens  equal density
print "scale=${scale} P=${mypress} rho=${mydens}" append cold_pressure_curve.txt

# 次の圧縮へ
variable scale equal ${scale}*0.97
if "${scale} > 0.85" then "jump SELF loop"
